1,61,16,60,105,72,40,34,116,8,111,96,54,90,55,6,89,47,71,26,4,119,3,102,101,110,112,106,104,84,35,10,99,62,37,67,83,57,73,63,5,77,64,95,12,97,88,21,93,82,115,11,23,103,38,7,56,74,87,44,50,98,42,49,118,17,20,113,69,65,68,91,58,100,33,52,79,43,108,25,19,18,22,85,117,66,81,94,78,45,28,120,29,32,30,15,59,76,1